<?xml version='1.0' encoding='utf-8' standalone='yes'?>
<SchedulingPeriod ID='sprint05' xmlns:xsi='http://www.w3.org/2001/XMLSchema-instance' xsi:noNamespaceSchemaLocation='competition.xsd'>
	<CourseTypes>
	<Course ID='00000'>
		<StartTime>16:00:00</StartTime>
		<EndTime>17:50:00</EndTime>
		<Dept>CHEM</Dept>
		<Crs>105</Crs>
		<Sec>001</Sec>
		<Bldg>BL</Bldg>
		<Rm>1165</Rm>
	</Course>
	<Course ID='00001'>
		<StartTime>19:00:00</StartTime>
		<EndTime>20:50:00</EndTime>
		<Dept>CHEM</Dept>
		<Crs>254</Crs>
		<Sec>001</Sec>
		<Bldg>BL</Bldg>
		<Rm>1165</Rm>
	</Course>
	<Course ID='00002'>
		<StartTime>20:00:00</StartTime>
		<EndTime>21:50:00</EndTime>
		<Dept>CHEM</Dept>
		<Crs>299</Crs>
		<Sec>001</Sec>
		<Bldg>BL</Bldg>
		<Rm>1165</Rm>
	</Course>
	<Course ID='00003'>
		<StartTime>08:00:00</StartTime>
		<EndTime>09:50:00</EndTime>
		<Dept>CHEM</Dept>
		<Crs>340</Crs>
		<Sec>001</Sec>
		<Bldg>BL</Bldg>
		<Rm>1165</Rm>
	</Course>
	<Course ID='00004'>
		<StartTime>08:00:00</StartTime>
		<EndTime>09:50:00</EndTime>
		<Dept>CHEM</Dept>
		<Crs>125</Crs>
		<Sec>001</Sec>
		<Bldg>BL</Bldg>
		<Rm>1165</Rm>
	</Course>
	<Course ID='00005'>
		<StartTime>16:00:00</StartTime>
		<EndTime>17:50:00</EndTime>
		<Dept>CHEM</Dept>
		<Crs>443</Crs>
		<Sec>001</Sec>
		<Bldg>BL</Bldg>
		<Rm>1165</Rm>
	</Course>
	<Course ID='00006'>
		<StartTime>12:00:00</StartTime>
		<EndTime>13:50:00</EndTime>
		<Dept>CHEM</Dept>
		<Crs>260</Crs>
		<Sec>001</Sec>
		<Bldg>BL</Bldg>
		<Rm>1165</Rm>
	</Course>
	<Course ID='00007'>
		<StartTime>17:00:00</StartTime>
		<EndTime>18:50:00</EndTime>
		<Dept>CHEM</Dept>
		<Crs>125</Crs>
		<Sec>001</Sec>
		<Bldg>BL</Bldg>
		<Rm>1165</Rm>
	</Course>
	<Course ID='00008'>
		<StartTime>17:00:00</StartTime>
		<EndTime>18:50:00</EndTime>
		<Dept>CHEM</Dept>
		<Crs>464</Crs>
		<Sec>001</Sec>
		<Bldg>BL</Bldg>
		<Rm>1165</Rm>
	</Course>
	<Course ID='00009'>
		<StartTime>12:00:00</StartTime>
		<EndTime>13:50:00</EndTime>
		<Dept>CHEM</Dept>
		<Crs>123</Crs>
		<Sec>001</Sec>
		<Bldg>BL</Bldg>
		<Rm>1165</Rm>
	</Course>
	<Course ID='00010'>
		<StartTime>15:00:00</StartTime>
		<EndTime>16:50:00</EndTime>
		<Dept>CHEM</Dept>
		<Crs>482</Crs>
		<Sec>001</Sec>
		<Bldg>BL</Bldg>
		<Rm>1165</Rm>
	</Course>
	<Course ID='00011'>
		<StartTime>14:00:00</StartTime>
		<EndTime>15:50:00</EndTime>
		<Dept>CHEM</Dept>
		<Crs>365</Crs>
		<Sec>001</Sec>
		<Bldg>BL</Bldg>
		<Rm>1165</Rm>
	</Course>
	<Course ID='00012'>
		<StartTime>07:00:00</StartTime>
		<EndTime>08:50:00</EndTime>
		<Dept>CHEM</Dept>
		<Crs>137</Crs>
		<Sec>001</Sec>
		<Bldg>BL</Bldg>
		<Rm>1165</Rm>
	</Course>
	<Course ID='00013'>
		<StartTime>11:00:00</StartTime>
		<EndTime>12:50:00</EndTime>
		<Dept>CHEM</Dept>
		<Crs>235</Crs>
		<Sec>001</Sec>
		<Bldg>BL</Bldg>
		<Rm>1165</Rm>
	</Course>
	<Course ID='00014'>
		<StartTime>09:00:00</StartTime>
		<EndTime>10:50:00</EndTime>
		<Dept>CHEM</Dept>
		<Crs>199</Crs>
		<Sec>001</Sec>
		<Bldg>BL</Bldg>
		<Rm>1165</Rm>
	</Course>
	<Course ID='00015'>
		<StartTime>15:00:00</StartTime>
		<EndTime>16:50:00</EndTime>
		<Dept>CHEM</Dept>
		<Crs>464</Crs>
		<Sec>001</Sec>
		<Bldg>BL</Bldg>
		<Rm>1165</Rm>
	</Course>
	<Course ID='00016'>
		<StartTime>16:00:00</StartTime>
		<EndTime>17:50:00</EndTime>
		<Dept>CHEM</Dept>
		<Crs>250</Crs>
		<Sec>001</Sec>
		<Bldg>BL</Bldg>
		<Rm>1165</Rm>
	</Course>
	<Course ID='00017'>
		<StartTime>15:00:00</StartTime>
		<EndTime>16:50:00</EndTime>
		<Dept>CHEM</Dept>
		<Crs>104</Crs>
		<Sec>001</Sec>
		<Bldg>BL</Bldg>
		<Rm>1165</Rm>
	</Course>
	<Course ID='00018'>
		<StartTime>14:00:00</StartTime>
		<EndTime>15:50:00</EndTime>
		<Dept>CHEM</Dept>
		<Crs>220</Crs>
		<Sec>001</Sec>
		<Bldg>BL</Bldg>
		<Rm>1165</Rm>
	</Course>
	<Course ID='00019'>
		<StartTime>13:00:00</StartTime>
		<EndTime>14:50:00</EndTime>
		<Dept>CHEM</Dept>
		<Crs>231</Crs>
		<Sec>001</Sec>
		<Bldg>BL</Bldg>
		<Rm>1165</Rm>
	</Course>
	<Course ID='00020'>
		<StartTime>19:00:00</StartTime>
		<EndTime>20:50:00</EndTime>
		<Dept>CHEM</Dept>
		<Crs>166</Crs>
		<Sec>001</Sec>
		<Bldg>BL</Bldg>
		<Rm>1165</Rm>
	</Course>
	<Course ID='00021'>
		<StartTime>18:00:00</StartTime>
		<EndTime>19:50:00</EndTime>
		<Dept>CHEM</Dept>
		<Crs>471</Crs>
		<Sec>001</Sec>
		<Bldg>BL</Bldg>
		<Rm>1165</Rm>
	</Course>
	<Course ID='00022'>
		<StartTime>19:00:00</StartTime>
		<EndTime>20:50:00</EndTime>
		<Dept>CHEM</Dept>
		<Crs>198</Crs>
		<Sec>001</Sec>
		<Bldg>BL</Bldg>
		<Rm>1165</Rm>
	</Course>
	<Course ID='00023'>
		<StartTime>18:00:00</StartTime>
		<EndTime>19:50:00</EndTime>
		<Dept>CHEM</Dept>
		<Crs>435</Crs>
		<Sec>001</Sec>
		<Bldg>BL</Bldg>
		<Rm>1165</Rm>
	</Course>
	<Course ID='00024'>
		<StartTime>11:00:00</StartTime>
		<EndTime>12:50:00</EndTime>
		<Dept>CHEM</Dept>
		<Crs>226</Crs>
		<Sec>001</Sec>
		<Bldg>BL</Bldg>
		<Rm>1165</Rm>
	</Course>
	<Course ID='00025'>
		<StartTime>18:00:00</StartTime>
		<EndTime>19:50:00</EndTime>
		<Dept>CHEM</Dept>
		<Crs>471</Crs>
		<Sec>001</Sec>
		<Bldg>BL</Bldg>
		<Rm>1165</Rm>
	</Course>
	<Course ID='00026'>
		<StartTime>10:00:00</StartTime>
		<EndTime>11:50:00</EndTime>
		<Dept>CHEM</Dept>
		<Crs>282</Crs>
		<Sec>001</Sec>
		<Bldg>BL</Bldg>
		<Rm>1165</Rm>
	</Course>
	<Course ID='00027'>
		<StartTime>08:00:00</StartTime>
		<EndTime>09:50:00</EndTime>
		<Dept>CHEM</Dept>
		<Crs>357</Crs>
		<Sec>001</Sec>
		<Bldg>BL</Bldg>
		<Rm>1165</Rm>
	</Course>
	<Course ID='00028'>
		<StartTime>15:00:00</StartTime>
		<EndTime>16:50:00</EndTime>
		<Dept>CHEM</Dept>
		<Crs>330</Crs>
		<Sec>001</Sec>
		<Bldg>BL</Bldg>
		<Rm>1165</Rm>
	</Course>
	<Course ID='00029'>
		<StartTime>14:00:00</StartTime>
		<EndTime>15:50:00</EndTime>
		<Dept>CHEM</Dept>
		<Crs>481</Crs>
		<Sec>001</Sec>
		<Bldg>BL</Bldg>
		<Rm>1165</Rm>
	</Course>
	<Course ID='00030'>
		<StartTime>14:00:00</StartTime>
		<EndTime>15:50:00</EndTime>
		<Dept>CHEM</Dept>
		<Crs>185</Crs>
		<Sec>001</Sec>
		<Bldg>BL</Bldg>
		<Rm>1165</Rm>
	</Course>
	<Course ID='00031'>
		<StartTime>08:00:00</StartTime>
		<EndTime>09:50:00</EndTime>
		<Dept>CHEM</Dept>
		<Crs>437</Crs>
		<Sec>001</Sec>
		<Bldg>BL</Bldg>
		<Rm>1165</Rm>
	</Course>
	<Course ID='00032'>
		<StartTime>18:00:00</StartTime>
		<EndTime>19:50:00</EndTime>
		<Dept>CHEM</Dept>
		<Crs>290</Crs>
		<Sec>001</Sec>
		<Bldg>BL</Bldg>
		<Rm>1165</Rm>
	</Course>
	<Course ID='00033'>
		<StartTime>11:00:00</StartTime>
		<EndTime>12:50:00</EndTime>
		<Dept>CHEM</Dept>
		<Crs>244</Crs>
		<Sec>001</Sec>
		<Bldg>BL</Bldg>
		<Rm>1165</Rm>
	</Course>
	<Course ID='00034'>
		<StartTime>11:00:00</StartTime>
		<EndTime>12:50:00</EndTime>
		<Dept>CHEM</Dept>
		<Crs>143</Crs>
		<Sec>001</Sec>
		<Bldg>BL</Bldg>
		<Rm>1165</Rm>
	</Course>
	<Course ID='00035'>
		<StartTime>11:00:00</StartTime>
		<EndTime>12:50:00</EndTime>
		<Dept>CHEM</Dept>
		<Crs>192</Crs>
		<Sec>001</Sec>
		<Bldg>BL</Bldg>
		<Rm>1165</Rm>
	</Course>
	<Course ID='00036'>
		<StartTime>16:00:00</StartTime>
		<EndTime>17:50:00</EndTime>
		<Dept>CHEM</Dept>
		<Crs>239</Crs>
		<Sec>001</Sec>
		<Bldg>BL</Bldg>
		<Rm>1165</Rm>
	</Course>
	<Course ID='00037'>
		<StartTime>12:00:00</StartTime>
		<EndTime>13:50:00</EndTime>
		<Dept>CHEM</Dept>
		<Crs>433</Crs>
		<Sec>001</Sec>
		<Bldg>BL</Bldg>
		<Rm>1165</Rm>
	</Course>
	<Course ID='00038'>
		<StartTime>14:00:00</StartTime>
		<EndTime>15:50:00</EndTime>
		<Dept>CHEM</Dept>
		<Crs>469</Crs>
		<Sec>001</Sec>
		<Bldg>BL</Bldg>
		<Rm>1165</Rm>
	</Course>
	<Course ID='00039'>
		<StartTime>14:00:00</StartTime>
		<EndTime>15:50:00</EndTime>
		<Dept>CHEM</Dept>
		<Crs>442</Crs>
		<Sec>001</Sec>
		<Bldg>BL</Bldg>
		<Rm>1165</Rm>
	</Course>
	<Course ID='00040'>
		<StartTime>17:00:00</StartTime>
		<EndTime>18:50:00</EndTime>
		<Dept>CHEM</Dept>
		<Crs>336</Crs>
		<Sec>001</Sec>
		<Bldg>BL</Bldg>
		<Rm>1165</Rm>
	</Course>
	<Course ID='00041'>
		<StartTime>07:00:00</StartTime>
		<EndTime>08:50:00</EndTime>
		<Dept>CHEM</Dept>
		<Crs>428</Crs>
		<Sec>001</Sec>
		<Bldg>BL</Bldg>
		<Rm>1165</Rm>
	</Course>
	<Course ID='00042'>
		<StartTime>12:00:00</StartTime>
		<EndTime>13:50:00</EndTime>
		<Dept>CHEM</Dept>
		<Crs>343</Crs>
		<Sec>001</Sec>
		<Bldg>BL</Bldg>
		<Rm>1165</Rm>
	</Course>
	<Course ID='00043'>
		<StartTime>12:00:00</StartTime>
		<EndTime>13:50:00</EndTime>
		<Dept>CHEM</Dept>
		<Crs>422</Crs>
		<Sec>001</Sec>
		<Bldg>BL</Bldg>
		<Rm>1165</Rm>
	</Course>
	<Course ID='00044'>
		<StartTime>15:00:00</StartTime>
		<EndTime>16:50:00</EndTime>
		<Dept>CHEM</Dept>
		<Crs>265</Crs>
		<Sec>001</Sec>
		<Bldg>BL</Bldg>
		<Rm>1165</Rm>
	</Course>
	<Course ID='00045'>
		<StartTime>17:00:00</StartTime>
		<EndTime>18:50:00</EndTime>
		<Dept>CHEM</Dept>
		<Crs>319</Crs>
		<Sec>001</Sec>
		<Bldg>BL</Bldg>
		<Rm>1165</Rm>
	</Course>
	<Course ID='00046'>
		<StartTime>17:00:00</StartTime>
		<EndTime>18:50:00</EndTime>
		<Dept>CHEM</Dept>
		<Crs>227</Crs>
		<Sec>001</Sec>
		<Bldg>BL</Bldg>
		<Rm>1165</Rm>
	</Course>
	<Course ID='00047'>
		<StartTime>20:00:00</StartTime>
		<EndTime>21:50:00</EndTime>
		<Dept>CHEM</Dept>
		<Crs>494</Crs>
		<Sec>001</Sec>
		<Bldg>BL</Bldg>
		<Rm>1165</Rm>
	</Course>
	<Course ID='00048'>
		<StartTime>20:00:00</StartTime>
		<EndTime>21:50:00</EndTime>
		<Dept>CHEM</Dept>
		<Crs>209</Crs>
		<Sec>001</Sec>
		<Bldg>BL</Bldg>
		<Rm>1165</Rm>
	</Course>
	<Course ID='00049'>
		<StartTime>07:00:00</StartTime>
		<EndTime>08:50:00</EndTime>
		<Dept>CHEM</Dept>
		<Crs>105</Crs>
		<Sec>001</Sec>
		<Bldg>BL</Bldg>
		<Rm>1165</Rm>
	</Course>
	<Course ID='00050'>
		<StartTime>19:00:00</StartTime>
		<EndTime>20:50:00</EndTime>
		<Dept>CHEM</Dept>
		<Crs>233</Crs>
		<Sec>001</Sec>
		<Bldg>BL</Bldg>
		<Rm>1165</Rm>
	</Course>
	<Course ID='00051'>
		<StartTime>20:00:00</StartTime>
		<EndTime>21:50:00</EndTime>
		<Dept>CHEM</Dept>
		<Crs>417</Crs>
		<Sec>001</Sec>
		<Bldg>BL</Bldg>
		<Rm>1165</Rm>
	</Course>
	<Course ID='00052'>
		<StartTime>15:00:00</StartTime>
		<EndTime>16:50:00</EndTime>
		<Dept>CHEM</Dept>
		<Crs>411</Crs>
		<Sec>001</Sec>
		<Bldg>BL</Bldg>
		<Rm>1165</Rm>
	</Course>
	<Course ID='00053'>
		<StartTime>09:00:00</StartTime>
		<EndTime>10:50:00</EndTime>
		<Dept>CHEM</Dept>
		<Crs>250</Crs>
		<Sec>001</Sec>
		<Bldg>BL</Bldg>
		<Rm>1165</Rm>
	</Course>
	<Course ID='00054'>
		<StartTime>08:00:00</StartTime>
		<EndTime>09:50:00</EndTime>
		<Dept>CHEM</Dept>
		<Crs>359</Crs>
		<Sec>001</Sec>
		<Bldg>BL</Bldg>
		<Rm>1165</Rm>
	</Course>
	<Course ID='00055'>
		<StartTime>18:00:00</StartTime>
		<EndTime>19:50:00</EndTime>
		<Dept>CHEM</Dept>
		<Crs>340</Crs>
		<Sec>001</Sec>
		<Bldg>BL</Bldg>
		<Rm>1165</Rm>
	</Course>
	<Course ID='00056'>
		<StartTime>20:00:00</StartTime>
		<EndTime>21:50:00</EndTime>
		<Dept>CHEM</Dept>
		<Crs>480</Crs>
		<Sec>001</Sec>
		<Bldg>BL</Bldg>
		<Rm>1165</Rm>
	</Course>
	<Course ID='00057'>
		<StartTime>18:00:00</StartTime>
		<EndTime>19:50:00</EndTime>
		<Dept>CHEM</Dept>
		<Crs>161</Crs>
		<Sec>001</Sec>
		<Bldg>BL</Bldg>
		<Rm>1165</Rm>
	</Course>
	<Course ID='00058'>
		<StartTime>13:00:00</StartTime>
		<EndTime>14:50:00</EndTime>
		<Dept>CHEM</Dept>
		<Crs>272</Crs>
		<Sec>001</Sec>
		<Bldg>BL</Bldg>
		<Rm>1165</Rm>
	</Course>
	<Course ID='00059'>
		<StartTime>14:00:00</StartTime>
		<EndTime>15:50:00</EndTime>
		<Dept>CHEM</Dept>
		<Crs>293</Crs>
		<Sec>001</Sec>
		<Bldg>BL</Bldg>
		<Rm>1165</Rm>
	</Course>
	<Course ID='00060'>
		<StartTime>10:00:00</StartTime>
		<EndTime>11:50:00</EndTime>
		<Dept>CHEM</Dept>
		<Crs>468</Crs>
		<Sec>001</Sec>
		<Bldg>BL</Bldg>
		<Rm>1165</Rm>
	</Course>
	<Course ID='00061'>
		<StartTime>10:00:00</StartTime>
		<EndTime>11:50:00</EndTime>
		<Dept>CHEM</Dept>
		<Crs>498</Crs>
		<Sec>001</Sec>
		<Bldg>BL</Bldg>
		<Rm>1165</Rm>
	</Course>
	<Course ID='00062'>
		<StartTime>11:00:00</StartTime>
		<EndTime>12:50:00</EndTime>
		<Dept>CHEM</Dept>
		<Crs>431</Crs>
		<Sec>001</Sec>
		<Bldg>BL</Bldg>
		<Rm>1165</Rm>
	</Course>
	<Course ID='00063'>
		<StartTime>19:00:00</StartTime>
		<EndTime>20:50:00</EndTime>
		<Dept>CHEM</Dept>
		<Crs>206</Crs>
		<Sec>001</Sec>
		<Bldg>BL</Bldg>
		<Rm>1165</Rm>
	</Course>
	<Course ID='00064'>
		<StartTime>19:00:00</StartTime>
		<EndTime>20:50:00</EndTime>
		<Dept>CHEM</Dept>
		<Crs>163</Crs>
		<Sec>001</Sec>
		<Bldg>BL</Bldg>
		<Rm>1165</Rm>
	</Course>
	<Course ID='00065'>
		<StartTime>13:00:00</StartTime>
		<EndTime>14:50:00</EndTime>
		<Dept>CHEM</Dept>
		<Crs>129</Crs>
		<Sec>001</Sec>
		<Bldg>BL</Bldg>
		<Rm>1165</Rm>
	</Course>
	<Course ID='00066'>
		<StartTime>19:00:00</StartTime>
		<EndTime>20:50:00</EndTime>
		<Dept>CHEM</Dept>
		<Crs>419</Crs>
		<Sec>001</Sec>
		<Bldg>BL</Bldg>
		<Rm>1165</Rm>
	</Course>
	<Course ID='00067'>
		<StartTime>07:00:00</StartTime>
		<EndTime>08:50:00</EndTime>
		<Dept>CHEM</Dept>
		<Crs>162</Crs>
		<Sec>001</Sec>
		<Bldg>BL</Bldg>
		<Rm>1165</Rm>
	</Course>
	<Course ID='00068'>
		<StartTime>14:00:00</StartTime>
		<EndTime>15:50:00</EndTime>
		<Dept>CHEM</Dept>
		<Crs>474</Crs>
		<Sec>001</Sec>
		<Bldg>BL</Bldg>
		<Rm>1165</Rm>
	</Course>
	<Course ID='00069'>
		<StartTime>08:00:00</StartTime>
		<EndTime>09:50:00</EndTime>
		<Dept>CHEM</Dept>
		<Crs>293</Crs>
		<Sec>001</Sec>
		<Bldg>BL</Bldg>
		<Rm>1165</Rm>
	</Course>
	</CourseTypes>
	<Contracts>
		<Contract ID='0'>
			<Description>Standard TA</Description>
			<MaxNumAssignments on='1' weight='1'>2</MaxNumAssignments>
			<MinNumAssignments on='1' weight='1'>1</MinNumAssignments>
		</Contract>
	</Contracts>
	<Tas>
		<Ta ID='0'>
			<ContractID>0</ContractID>
			<Name>TravisLillie</Name>
			<Email>temp@siue.edu</Email>
		</Ta>
		<Ta ID='1'>
			<ContractID>0</ContractID>
			<Name>MirianJanell</Name>
			<Email>temp@siue.edu</Email>
		</Ta>
		<Ta ID='2'>
			<ContractID>0</ContractID>
			<Name>MarshallSo</Name>
			<Email>temp@siue.edu</Email>
		</Ta>
		<Ta ID='3'>
			<ContractID>0</ContractID>
			<Name>MarciaMerrilee</Name>
			<Email>temp@siue.edu</Email>
		</Ta>
		<Ta ID='4'>
			<ContractID>0</ContractID>
			<Name>DenishaJenee</Name>
			<Email>temp@siue.edu</Email>
		</Ta>
		<Ta ID='5'>
			<ContractID>0</ContractID>
			<Name>AlbertineDamaris</Name>
			<Email>temp@siue.edu</Email>
		</Ta>
		<Ta ID='6'>
			<ContractID>0</ContractID>
			<Name>NanIsidro</Name>
			<Email>temp@siue.edu</Email>
		</Ta>
		<Ta ID='7'>
			<ContractID>0</ContractID>
			<Name>BradleyMeridith</Name>
			<Email>temp@siue.edu</Email>
		</Ta>
		<Ta ID='8'>
			<ContractID>0</ContractID>
			<Name>HerminiaVergie</Name>
			<Email>temp@siue.edu</Email>
		</Ta>
		<Ta ID='9'>
			<ContractID>0</ContractID>
			<Name>RossieCleveland</Name>
			<Email>temp@siue.edu</Email>
		</Ta>
		<Ta ID='10'>
			<ContractID>0</ContractID>
			<Name>EustoliaVicente</Name>
			<Email>temp@siue.edu</Email>
		</Ta>
		<Ta ID='11'>
			<ContractID>0</ContractID>
			<Name>LeannWhitney</Name>
			<Email>temp@siue.edu</Email>
		</Ta>
		<Ta ID='12'>
			<ContractID>0</ContractID>
			<Name>VernitaPetrina</Name>
			<Email>temp@siue.edu</Email>
		</Ta>
		<Ta ID='13'>
			<ContractID>0</ContractID>
			<Name>MarenMargo</Name>
			<Email>temp@siue.edu</Email>
		</Ta>
		<Ta ID='14'>
			<ContractID>0</ContractID>
			<Name>TeresitaDusty</Name>
			<Email>temp@siue.edu</Email>
		</Ta>
		<Ta ID='15'>
			<ContractID>0</ContractID>
			<Name>PatsyElmira</Name>
			<Email>temp@siue.edu</Email>
		</Ta>
		<Ta ID='16'>
			<ContractID>0</ContractID>
			<Name>StanleyTina</Name>
			<Email>temp@siue.edu</Email>
		</Ta>
		<Ta ID='17'>
			<ContractID>0</ContractID>
			<Name>SterlingGlinda</Name>
			<Email>temp@siue.edu</Email>
		</Ta>
		<Ta ID='18'>
			<ContractID>0</ContractID>
			<Name>AmparoAi</Name>
			<Email>temp@siue.edu</Email>
		</Ta>
		<Ta ID='19'>
			<ContractID>0</ContractID>
			<Name>CassaundraSamuel</Name>
			<Email>temp@siue.edu</Email>
		</Ta>
		<Ta ID='20'>
			<ContractID>0</ContractID>
			<Name>DonnieTamar</Name>
			<Email>temp@siue.edu</Email>
		</Ta>
		<Ta ID='21'>
			<ContractID>0</ContractID>
			<Name>LucianoZonia</Name>
			<Email>temp@siue.edu</Email>
		</Ta>
		<Ta ID='22'>
			<ContractID>0</ContractID>
			<Name>PamilaKim</Name>
			<Email>temp@siue.edu</Email>
		</Ta>
		<Ta ID='23'>
			<ContractID>0</ContractID>
			<Name>MaribelFloyd</Name>
			<Email>temp@siue.edu</Email>
		</Ta>
		<Ta ID='24'>
			<ContractID>0</ContractID>
			<Name>CynthiaGlen</Name>
			<Email>temp@siue.edu</Email>
		</Ta>
		<Ta ID='25'>
			<ContractID>0</ContractID>
			<Name>AvaMyrta</Name>
			<Email>temp@siue.edu</Email>
		</Ta>
		<Ta ID='26'>
			<ContractID>0</ContractID>
			<Name>WillyEtsuko</Name>
			<Email>temp@siue.edu</Email>
		</Ta>
		<Ta ID='27'>
			<ContractID>0</ContractID>
			<Name>ShariceMinnie</Name>
			<Email>temp@siue.edu</Email>
		</Ta>
		<Ta ID='28'>
			<ContractID>0</ContractID>
			<Name>LatriceTobie</Name>
			<Email>temp@siue.edu</Email>
		</Ta>
		<Ta ID='29'>
			<ContractID>0</ContractID>
			<Name>LupeVella</Name>
			<Email>temp@siue.edu</Email>
		</Ta>
		<Ta ID='30'>
			<ContractID>0</ContractID>
			<Name>EmmieAnna</Name>
			<Email>temp@siue.edu</Email>
		</Ta>
		<Ta ID='31'>
			<ContractID>0</ContractID>
			<Name>ShavonneLia</Name>
			<Email>temp@siue.edu</Email>
		</Ta>
		<Ta ID='32'>
			<ContractID>0</ContractID>
			<Name>MichealHillary</Name>
			<Email>temp@siue.edu</Email>
		</Ta>
		<Ta ID='33'>
			<ContractID>0</ContractID>
			<Name>CallieBao</Name>
			<Email>temp@siue.edu</Email>
		</Ta>
		<Ta ID='34'>
			<ContractID>0</ContractID>
			<Name>DarellKarole</Name>
			<Email>temp@siue.edu</Email>
		</Ta>
		<Ta ID='35'>
			<ContractID>0</ContractID>
			<Name>CordellAmado</Name>
			<Email>temp@siue.edu</Email>
		</Ta>
		<Ta ID='36'>
			<ContractID>0</ContractID>
			<Name>LashayHeath</Name>
			<Email>temp@siue.edu</Email>
		</Ta>
		<Ta ID='37'>
			<ContractID>0</ContractID>
			<Name>LenKiyoko</Name>
			<Email>temp@siue.edu</Email>
		</Ta>
		<Ta ID='38'>
			<ContractID>0</ContractID>
			<Name>MailePasquale</Name>
			<Email>temp@siue.edu</Email>
		</Ta>
		<Ta ID='39'>
			<ContractID>0</ContractID>
			<Name>KasandraTashina</Name>
			<Email>temp@siue.edu</Email>
		</Ta>
		<Ta ID='40'>
			<ContractID>0</ContractID>
			<Name>BlakeSerina</Name>
			<Email>temp@siue.edu</Email>
		</Ta>
		<Ta ID='41'>
			<ContractID>0</ContractID>
			<Name>JeanettMalinda</Name>
			<Email>temp@siue.edu</Email>
		</Ta>
		<Ta ID='42'>
			<ContractID>0</ContractID>
			<Name>NatishaIsela</Name>
			<Email>temp@siue.edu</Email>
		</Ta>
		<Ta ID='43'>
			<ContractID>0</ContractID>
			<Name>AntoneQuyen</Name>
			<Email>temp@siue.edu</Email>
		</Ta>
		<Ta ID='44'>
			<ContractID>0</ContractID>
			<Name>JuliannaCharmain</Name>
			<Email>temp@siue.edu</Email>
		</Ta>
		<Ta ID='45'>
			<ContractID>0</ContractID>
			<Name>GustavoAlbertine</Name>
			<Email>temp@siue.edu</Email>
		</Ta>
		<Ta ID='46'>
			<ContractID>0</ContractID>
			<Name>DagmarChrista</Name>
			<Email>temp@siue.edu</Email>
		</Ta>
		<Ta ID='47'>
			<ContractID>0</ContractID>
			<Name>GussieRonna</Name>
			<Email>temp@siue.edu</Email>
		</Ta>
		<Ta ID='48'>
			<ContractID>0</ContractID>
			<Name>MyrtleBranden</Name>
			<Email>temp@siue.edu</Email>
		</Ta>
		<Ta ID='49'>
			<ContractID>0</ContractID>
			<Name>KayleneLacey</Name>
			<Email>temp@siue.edu</Email>
		</Ta>
	</Tas>
	<CoverRequirements>
		<CourseCover>
			<Course>00000</Course>
			<Preferred>1</Preferred>
			<Days>
			<Day>Thursday</Day>
			</Days>
		</CourseCover>
		<CourseCover>
			<Course>00001</Course>
			<Preferred>1</Preferred>
			<Days>
			<Day>Wednesday</Day>
			</Days>
		</CourseCover>
		<CourseCover>
			<Course>00002</Course>
			<Preferred>1</Preferred>
			<Days>
			<Day>Monday</Day>
			</Days>
		</CourseCover>
		<CourseCover>
			<Course>00003</Course>
			<Preferred>1</Preferred>
			<Days>
			<Day>Friday</Day>
			</Days>
		</CourseCover>
		<CourseCover>
			<Course>00004</Course>
			<Preferred>1</Preferred>
			<Days>
			<Day>Tuesday</Day>
			</Days>
		</CourseCover>
		<CourseCover>
			<Course>00005</Course>
			<Preferred>1</Preferred>
			<Days>
			<Day>Thursday</Day>
			</Days>
		</CourseCover>
		<CourseCover>
			<Course>00006</Course>
			<Preferred>1</Preferred>
			<Days>
			<Day>Wednesday</Day>
			</Days>
		</CourseCover>
		<CourseCover>
			<Course>00007</Course>
			<Preferred>1</Preferred>
			<Days>
			<Day>Monday</Day>
			</Days>
		</CourseCover>
		<CourseCover>
			<Course>00008</Course>
			<Preferred>1</Preferred>
			<Days>
			<Day>Thursday</Day>
			</Days>
		</CourseCover>
		<CourseCover>
			<Course>00009</Course>
			<Preferred>1</Preferred>
			<Days>
			<Day>Wednesday</Day>
			</Days>
		</CourseCover>
		<CourseCover>
			<Course>00010</Course>
			<Preferred>1</Preferred>
			<Days>
			<Day>Wednesday</Day>
			</Days>
		</CourseCover>
		<CourseCover>
			<Course>00011</Course>
			<Preferred>1</Preferred>
			<Days>
			<Day>Friday</Day>
			</Days>
		</CourseCover>
		<CourseCover>
			<Course>00012</Course>
			<Preferred>1</Preferred>
			<Days>
			<Day>Wednesday</Day>
			</Days>
		</CourseCover>
		<CourseCover>
			<Course>00013</Course>
			<Preferred>1</Preferred>
			<Days>
			<Day>Thursday</Day>
			</Days>
		</CourseCover>
		<CourseCover>
			<Course>00014</Course>
			<Preferred>1</Preferred>
			<Days>
			<Day>Monday</Day>
			</Days>
		</CourseCover>
		<CourseCover>
			<Course>00015</Course>
			<Preferred>1</Preferred>
			<Days>
			<Day>Wednesday</Day>
			</Days>
		</CourseCover>
		<CourseCover>
			<Course>00016</Course>
			<Preferred>1</Preferred>
			<Days>
			<Day>Tuesday</Day>
			</Days>
		</CourseCover>
		<CourseCover>
			<Course>00017</Course>
			<Preferred>1</Preferred>
			<Days>
			<Day>Friday</Day>
			</Days>
		</CourseCover>
		<CourseCover>
			<Course>00018</Course>
			<Preferred>1</Preferred>
			<Days>
			<Day>Tuesday</Day>
			</Days>
		</CourseCover>
		<CourseCover>
			<Course>00019</Course>
			<Preferred>1</Preferred>
			<Days>
			<Day>Monday</Day>
			</Days>
		</CourseCover>
		<CourseCover>
			<Course>00020</Course>
			<Preferred>1</Preferred>
			<Days>
			<Day>Wednesday</Day>
			</Days>
		</CourseCover>
		<CourseCover>
			<Course>00021</Course>
			<Preferred>1</Preferred>
			<Days>
			<Day>Wednesday</Day>
			</Days>
		</CourseCover>
		<CourseCover>
			<Course>00022</Course>
			<Preferred>1</Preferred>
			<Days>
			<Day>Tuesday</Day>
			</Days>
		</CourseCover>
		<CourseCover>
			<Course>00023</Course>
			<Preferred>1</Preferred>
			<Days>
			<Day>Friday</Day>
			</Days>
		</CourseCover>
		<CourseCover>
			<Course>00024</Course>
			<Preferred>1</Preferred>
			<Days>
			<Day>Thursday</Day>
			</Days>
		</CourseCover>
		<CourseCover>
			<Course>00025</Course>
			<Preferred>1</Preferred>
			<Days>
			<Day>Monday</Day>
			</Days>
		</CourseCover>
		<CourseCover>
			<Course>00026</Course>
			<Preferred>1</Preferred>
			<Days>
			<Day>Wednesday</Day>
			</Days>
		</CourseCover>
		<CourseCover>
			<Course>00027</Course>
			<Preferred>1</Preferred>
			<Days>
			<Day>Thursday</Day>
			</Days>
		</CourseCover>
		<CourseCover>
			<Course>00028</Course>
			<Preferred>1</Preferred>
			<Days>
			<Day>Wednesday</Day>
			</Days>
		</CourseCover>
		<CourseCover>
			<Course>00029</Course>
			<Preferred>1</Preferred>
			<Days>
			<Day>Thursday</Day>
			</Days>
		</CourseCover>
		<CourseCover>
			<Course>00030</Course>
			<Preferred>1</Preferred>
			<Days>
			<Day>Thursday</Day>
			</Days>
		</CourseCover>
		<CourseCover>
			<Course>00031</Course>
			<Preferred>1</Preferred>
			<Days>
			<Day>Thursday</Day>
			</Days>
		</CourseCover>
		<CourseCover>
			<Course>00032</Course>
			<Preferred>1</Preferred>
			<Days>
			<Day>Monday</Day>
			</Days>
		</CourseCover>
		<CourseCover>
			<Course>00033</Course>
			<Preferred>1</Preferred>
			<Days>
			<Day>Friday</Day>
			</Days>
		</CourseCover>
		<CourseCover>
			<Course>00034</Course>
			<Preferred>1</Preferred>
			<Days>
			<Day>Wednesday</Day>
			</Days>
		</CourseCover>
		<CourseCover>
			<Course>00035</Course>
			<Preferred>1</Preferred>
			<Days>
			<Day>Monday</Day>
			</Days>
		</CourseCover>
		<CourseCover>
			<Course>00036</Course>
			<Preferred>1</Preferred>
			<Days>
			<Day>Monday</Day>
			</Days>
		</CourseCover>
		<CourseCover>
			<Course>00037</Course>
			<Preferred>1</Preferred>
			<Days>
			<Day>Friday</Day>
			</Days>
		</CourseCover>
		<CourseCover>
			<Course>00038</Course>
			<Preferred>1</Preferred>
			<Days>
			<Day>Friday</Day>
			</Days>
		</CourseCover>
		<CourseCover>
			<Course>00039</Course>
			<Preferred>1</Preferred>
			<Days>
			<Day>Wednesday</Day>
			</Days>
		</CourseCover>
		<CourseCover>
			<Course>00040</Course>
			<Preferred>1</Preferred>
			<Days>
			<Day>Monday</Day>
			</Days>
		</CourseCover>
		<CourseCover>
			<Course>00041</Course>
			<Preferred>1</Preferred>
			<Days>
			<Day>Friday</Day>
			</Days>
		</CourseCover>
		<CourseCover>
			<Course>00042</Course>
			<Preferred>1</Preferred>
			<Days>
			<Day>Tuesday</Day>
			</Days>
		</CourseCover>
		<CourseCover>
			<Course>00043</Course>
			<Preferred>1</Preferred>
			<Days>
			<Day>Monday</Day>
			</Days>
		</CourseCover>
		<CourseCover>
			<Course>00044</Course>
			<Preferred>1</Preferred>
			<Days>
			<Day>Thursday</Day>
			</Days>
		</CourseCover>
		<CourseCover>
			<Course>00045</Course>
			<Preferred>1</Preferred>
			<Days>
			<Day>Wednesday</Day>
			</Days>
		</CourseCover>
		<CourseCover>
			<Course>00046</Course>
			<Preferred>1</Preferred>
			<Days>
			<Day>Monday</Day>
			</Days>
		</CourseCover>
		<CourseCover>
			<Course>00047</Course>
			<Preferred>1</Preferred>
			<Days>
			<Day>Wednesday</Day>
			</Days>
		</CourseCover>
		<CourseCover>
			<Course>00048</Course>
			<Preferred>1</Preferred>
			<Days>
			<Day>Wednesday</Day>
			</Days>
		</CourseCover>
		<CourseCover>
			<Course>00049</Course>
			<Preferred>1</Preferred>
			<Days>
			<Day>Thursday</Day>
			</Days>
		</CourseCover>
		<CourseCover>
			<Course>00050</Course>
			<Preferred>1</Preferred>
			<Days>
			<Day>Thursday</Day>
			</Days>
		</CourseCover>
		<CourseCover>
			<Course>00051</Course>
			<Preferred>1</Preferred>
			<Days>
			<Day>Monday</Day>
			</Days>
		</CourseCover>
		<CourseCover>
			<Course>00052</Course>
			<Preferred>1</Preferred>
			<Days>
			<Day>Monday</Day>
			</Days>
		</CourseCover>
		<CourseCover>
			<Course>00053</Course>
			<Preferred>1</Preferred>
			<Days>
			<Day>Wednesday</Day>
			</Days>
		</CourseCover>
		<CourseCover>
			<Course>00054</Course>
			<Preferred>1</Preferred>
			<Days>
			<Day>Thursday</Day>
			</Days>
		</CourseCover>
		<CourseCover>
			<Course>00055</Course>
			<Preferred>1</Preferred>
			<Days>
			<Day>Tuesday</Day>
			</Days>
		</CourseCover>
		<CourseCover>
			<Course>00056</Course>
			<Preferred>1</Preferred>
			<Days>
			<Day>Tuesday</Day>
			</Days>
		</CourseCover>
		<CourseCover>
			<Course>00057</Course>
			<Preferred>1</Preferred>
			<Days>
			<Day>Tuesday</Day>
			</Days>
		</CourseCover>
		<CourseCover>
			<Course>00058</Course>
			<Preferred>1</Preferred>
			<Days>
			<Day>Monday</Day>
			</Days>
		</CourseCover>
		<CourseCover>
			<Course>00059</Course>
			<Preferred>1</Preferred>
			<Days>
			<Day>Wednesday</Day>
			</Days>
		</CourseCover>
		<CourseCover>
			<Course>00060</Course>
			<Preferred>1</Preferred>
			<Days>
			<Day>Tuesday</Day>
			</Days>
		</CourseCover>
		<CourseCover>
			<Course>00061</Course>
			<Preferred>1</Preferred>
			<Days>
			<Day>Thursday</Day>
			</Days>
		</CourseCover>
		<CourseCover>
			<Course>00062</Course>
			<Preferred>1</Preferred>
			<Days>
			<Day>Monday</Day>
			</Days>
		</CourseCover>
		<CourseCover>
			<Course>00063</Course>
			<Preferred>1</Preferred>
			<Days>
			<Day>Wednesday</Day>
			</Days>
		</CourseCover>
		<CourseCover>
			<Course>00064</Course>
			<Preferred>1</Preferred>
			<Days>
			<Day>Tuesday</Day>
			</Days>
		</CourseCover>
		<CourseCover>
			<Course>00065</Course>
			<Preferred>1</Preferred>
			<Days>
			<Day>Tuesday</Day>
			</Days>
		</CourseCover>
		<CourseCover>
			<Course>00066</Course>
			<Preferred>1</Preferred>
			<Days>
			<Day>Friday</Day>
			</Days>
		</CourseCover>
		<CourseCover>
			<Course>00067</Course>
			<Preferred>1</Preferred>
			<Days>
			<Day>Wednesday</Day>
			</Days>
		</CourseCover>
		<CourseCover>
			<Course>00068</Course>
			<Preferred>1</Preferred>
			<Days>
			<Day>Monday</Day>
			</Days>
		</CourseCover>
		<CourseCover>
			<Course>00069</Course>
			<Preferred>1</Preferred>
			<Days>
			<Day>Monday</Day>
			</Days>
		</CourseCover>
	</CoverRequirements>
</SchedulingPeriod>